# Solution for model r5_t27_m7_3 Batch Number: 5
# Finished Task: 24 / 27
# Makespan: 855.0, Total Distance: 499.0, Total Time: 1.5016
# R O S F Batch
0 0 30 0.0 0.0 -1
1 1 13 0.0 0.0 -1
2 2 21 0.0 0.0 -1
3 3 15 0.0 0.0 -1
4 4 12 0.0 0.0 -1
5 4 14 369.0 404.0 0
6 4 5 325.0 346.0 0
7 -1 -1 -1.0 -1.0 0
8 3 -1 770.0 803.0 1
9 2 27 399.0 435.0 0
10 1 11 406.0 429.0 0
11 1 -1 735.0 756.0 0
12 4 6 273.0 302.0 0
13 1 23 300.0 335.0 0
14 4 18 451.0 472.0 1
15 3 26 343.0 364.0 0
16 0 -1 743.0 780.0 2
17 4 19 520.0 553.0 2
18 4 17 485.0 507.0 1
19 4 24 596.0 618.0 2
20 2 9 361.0 389.0 0
21 2 20 317.0 346.0 0
22 -1 -1 -1.0 -1.0 3
23 1 10 355.0 380.0 0
24 4 28 775.0 800.0 3
25 3 8 724.0 756.0 0
26 3 25 643.0 671.0 0
27 2 31 690.0 725.0 4
28 4 -1 823.0 855.0 4
29 -1 -1 -1.0 -1.0 3
30 0 16 696.0 724.0 0
31 2 -1 815.0 846.0 4
